proofs/alf/rules/proof-nterm.smt2
(include "./Cvc5.smt2")
(declare-fun x_56 () Bool)
(declare-fun x_49 () Bool)
(declare-fun x_42 () Bool)
(declare-fun x_35 () Bool)
(declare-fun x_28 () Bool)
(declare-fun x_21 () Bool)
(declare-fun x_7 () Bool)
(declare-fun x_14 () Bool)
(declare-fun x_55 () Bool)
(declare-fun x_48 () Bool)
(declare-fun x_41 () Bool)
(declare-fun x_34 () Bool)
(declare-fun x_27 () Bool)
(declare-fun x_20 () Bool)
(declare-fun x_6 () Bool)
(declare-fun x_13 () Bool)
(declare-fun x_54 () Bool)
(declare-fun x_47 () Bool)
(declare-fun x_40 () Bool)
(declare-fun x_33 () Bool)
(declare-fun x_26 () Bool)
(declare-fun x_19 () Bool)
(declare-fun x_5 () Bool)
(declare-fun x_12 () Bool)
(declare-fun x_53 () Bool)
(declare-fun x_46 () Bool)
(declare-fun x_39 () Bool)
(declare-fun x_50 () Bool)
(declare-fun x_30 () Bool)
(declare-fun x_1 () Bool)
(declare-fun x_43 () Bool)
(declare-fun x_23 () Bool)
(declare-fun x_52 () Bool)
(declare-fun x_36 () Bool)
(declare-fun x_16 () Bool)
(declare-fun x_45 () Bool)
(declare-fun x_29 () Bool)
(declare-fun x_9 () Bool)
(declare-fun x_38 () Bool)
(declare-fun x_22 () Bool)
(declare-fun x_51 () Bool)
(declare-fun x_2 () Bool)
(declare-fun x_31 () Bool)
(declare-fun x_15 () Bool)
(declare-fun x_44 () Bool)
(declare-fun x_8 () Bool)
(declare-fun x_37 () Bool)
(declare-fun x_10 () Bool)
(declare-fun x_3 () Bool)
(declare-fun x_32 () Bool)
(declare-fun x_17 () Bool)
(declare-fun x_24 () Bool)
(declare-fun x_11 () Bool)
(declare-fun x_4 () Bool)
(declare-fun x_18 () Bool)
(declare-fun x_25 () Bool)
(assume @p1 (or (not x_1) (not x_8)))
(assume @p2 (or (not x_1) (not x_15)))
(assume @p3 (or (not x_1) (not x_22)))
(assume @p4 (or (not x_1) (not x_29)))
(assume @p5 (or (not x_1) (not x_36)))
(assume @p6 (or (not x_1) (not x_43)))
(assume @p7 (or (not x_1) (not x_50)))
(assume @p8 (or (not x_8) (not x_15)))
(assume @p9 (or (not x_8) (not x_22)))
(assume @p10 (or (not x_8) (not x_29)))
(assume @p11 (or (not x_8) (not x_36)))
(assume @p12 (or (not x_8) (not x_43)))
(assume @p13 (or (not x_8) (not x_50)))
(assume @p14 (or (not x_15) (not x_22)))
(assume @p15 (or (not x_15) (not x_29)))
(assume @p16 (or (not x_15) (not x_36)))
(assume @p17 (or (not x_15) (not x_43)))
(assume @p18 (or (not x_15) (not x_50)))
(assume @p19 (or (not x_22) (not x_29)))
(assume @p20 (or (not x_22) (not x_36)))
(assume @p21 (or (not x_22) (not x_43)))
(assume @p22 (or (not x_22) (not x_50)))
(assume @p23 (or (not x_29) (not x_36)))
(assume @p24 (or (not x_29) (not x_43)))
(assume @p25 (or (not x_29) (not x_50)))
(assume @p26 (or (not x_36) (not x_43)))
(assume @p27 (or (not x_36) (not x_50)))
(assume @p28 (or (not x_43) (not x_50)))
(assume @p29 (or (not x_2) (not x_9)))
(assume @p30 (or (not x_2) (not x_16)))
(assume @p31 (or (not x_2) (not x_23)))
(assume @p32 (or (not x_2) (not x_30)))
(assume @p33 (or (not x_2) (not x_37)))
(assume @p34 (or (not x_2) (not x_44)))
(assume @p35 (or (not x_2) (not x_51)))
(assume @p36 (or (not x_9) (not x_16)))
(assume @p37 (or (not x_9) (not x_23)))
(assume @p38 (or (not x_9) (not x_30)))
(assume @p39 (or (not x_9) (not x_37)))
(assume @p40 (or (not x_9) (not x_44)))
(assume @p41 (or (not x_9) (not x_51)))
(assume @p42 (or (not x_16) (not x_23)))
(assume @p43 (or (not x_16) (not x_30)))
(assume @p44 (or (not x_16) (not x_37)))
(assume @p45 (or (not x_16) (not x_44)))
(assume @p46 (or (not x_16) (not x_51)))
(assume @p47 (or (not x_23) (not x_30)))
(assume @p48 (or (not x_23) (not x_37)))
(assume @p49 (or (not x_23) (not x_44)))
(assume @p50 (or (not x_23) (not x_51)))
(assume @p51 (or (not x_30) (not x_37)))
(assume @p52 (or (not x_30) (not x_44)))
(assume @p53 (or (not x_30) (not x_51)))
(assume @p54 (or (not x_37) (not x_44)))
(assume @p55 (or (not x_37) (not x_51)))
(assume @p56 (or (not x_44) (not x_51)))
(assume @p57 (or (not x_3) (not x_10)))
(assume @p58 (or (not x_3) (not x_17)))
(assume @p59 (or (not x_3) (not x_24)))
(assume @p60 (or (not x_3) (not x_31)))
(assume @p61 (or (not x_3) (not x_38)))
(assume @p62 (or (not x_3) (not x_45)))
(assume @p63 (or (not x_3) (not x_52)))
(assume @p64 (or (not x_10) (not x_17)))
(assume @p65 (or (not x_10) (not x_24)))
(assume @p66 (or (not x_10) (not x_31)))
(assume @p67 (or (not x_10) (not x_38)))
(assume @p68 (or (not x_10) (not x_45)))
(assume @p69 (or (not x_10) (not x_52)))
(assume @p70 (or (not x_17) (not x_24)))
(assume @p71 (or (not x_17) (not x_31)))
(assume @p72 (or (not x_17) (not x_38)))
(assume @p73 (or (not x_17) (not x_45)))
(assume @p74 (or (not x_17) (not x_52)))
(assume @p75 (or (not x_24) (not x_31)))
(assume @p76 (or (not x_24) (not x_38)))
(assume @p77 (or (not x_24) (not x_45)))
(assume @p78 (or (not x_24) (not x_52)))
(assume @p79 (or (not x_31) (not x_38)))
(assume @p80 (or (not x_31) (not x_45)))
(assume @p81 (or (not x_31) (not x_52)))
(assume @p82 (or (not x_38) (not x_45)))
(assume @p83 (or (not x_38) (not x_52)))
(assume @p84 (or (not x_45) (not x_52)))
(assume @p85 (or (not x_4) (not x_11)))
(assume @p86 (or (not x_4) (not x_18)))
(assume @p87 (or (not x_4) (not x_25)))
(assume @p88 (or (not x_4) (not x_32)))
(assume @p89 (or (not x_4) (not x_39)))
(assume @p90 (or (not x_4) (not x_46)))
(assume @p91 (or (not x_4) (not x_53)))
(assume @p92 (or (not x_11) (not x_18)))
(assume @p93 (or (not x_11) (not x_25)))
(assume @p94 (or (not x_11) (not x_32)))
(assume @p95 (or (not x_11) (not x_39)))
(assume @p96 (or (not x_11) (not x_46)))
(assume @p97 (or (not x_11) (not x_53)))
(assume @p98 (or (not x_18) (not x_25)))
(assume @p99 (or (not x_18) (not x_32)))
(assume @p100 (or (not x_18) (not x_39)))
(assume @p101 (or (not x_18) (not x_46)))
(assume @p102 (or (not x_18) (not x_53)))
(assume @p103 (or (not x_25) (not x_32)))
(assume @p104 (or (not x_25) (not x_39)))
(assume @p105 (or (not x_25) (not x_46)))
(assume @p106 (or (not x_25) (not x_53)))
(assume @p107 (or (not x_32) (not x_39)))
(assume @p108 (or (not x_32) (not x_46)))
(assume @p109 (or (not x_32) (not x_53)))
(assume @p110 (or (not x_39) (not x_46)))
(assume @p111 (or (not x_39) (not x_53)))
(assume @p112 (or (not x_46) (not x_53)))
(assume @p113 (or (not x_5) (not x_12)))
(assume @p114 (or (not x_5) (not x_19)))
(assume @p115 (or (not x_5) (not x_26)))
(assume @p116 (or (not x_5) (not x_33)))
(assume @p117 (or (not x_5) (not x_40)))
(assume @p118 (or (not x_5) (not x_47)))
(assume @p119 (or (not x_5) (not x_54)))
(assume @p120 (or (not x_12) (not x_19)))
(assume @p121 (or (not x_12) (not x_26)))
(assume @p122 (or (not x_12) (not x_33)))
(assume @p123 (or (not x_12) (not x_40)))
(assume @p124 (or (not x_12) (not x_47)))
(assume @p125 (or (not x_12) (not x_54)))
(assume @p126 (or (not x_19) (not x_26)))
(assume @p127 (or (not x_19) (not x_33)))
(assume @p128 (or (not x_19) (not x_40)))
(assume @p129 (or (not x_19) (not x_47)))
(assume @p130 (or (not x_19) (not x_54)))
(assume @p131 (or (not x_26) (not x_33)))
(assume @p132 (or (not x_26) (not x_40)))
(assume @p133 (or (not x_26) (not x_47)))
(assume @p134 (or (not x_26) (not x_54)))
(assume @p135 (or (not x_33) (not x_40)))
(assume @p136 (or (not x_33) (not x_47)))
(assume @p137 (or (not x_33) (not x_54)))
(assume @p138 (or (not x_40) (not x_47)))
(assume @p139 (or (not x_40) (not x_54)))
(assume @p140 (or (not x_47) (not x_54)))
(assume @p141 (or (not x_6) (not x_13)))
(assume @p142 (or (not x_6) (not x_20)))
(assume @p143 (or (not x_6) (not x_27)))
(assume @p144 (or (not x_6) (not x_34)))
(assume @p145 (or (not x_6) (not x_41)))
(assume @p146 (or (not x_6) (not x_48)))
(assume @p147 (or (not x_6) (not x_55)))
(assume @p148 (or (not x_13) (not x_20)))
(assume @p149 (or (not x_13) (not x_27)))
(assume @p150 (or (not x_13) (not x_34)))
(assume @p151 (or (not x_13) (not x_41)))
(assume @p152 (or (not x_13) (not x_48)))
(assume @p153 (or (not x_13) (not x_55)))
(assume @p154 (or (not x_20) (not x_27)))
(assume @p155 (or (not x_20) (not x_34)))
(assume @p156 (or (not x_20) (not x_41)))
(assume @p157 (or (not x_20) (not x_48)))
(assume @p158 (or (not x_20) (not x_55)))
(assume @p159 (or (not x_27) (not x_34)))
(assume @p160 (or (not x_27) (not x_41)))
(assume @p161 (or (not x_27) (not x_48)))
(assume @p162 (or (not x_27) (not x_55)))
(assume @p163 (or (not x_34) (not x_41)))
(assume @p164 (or (not x_34) (not x_48)))
(assume @p165 (or (not x_34) (not x_55)))
(assume @p166 (or (not x_41) (not x_48)))
(assume @p167 (or (not x_41) (not x_55)))
(assume @p168 (or (not x_48) (not x_55)))
(assume @p169 (or (not x_7) (not x_14)))
(assume @p170 (or (not x_7) (not x_21)))
(assume @p171 (or (not x_7) (not x_28)))
(assume @p172 (or (not x_7) (not x_35)))
(assume @p173 (or (not x_7) (not x_42)))
(assume @p174 (or (not x_7) (not x_49)))
(assume @p175 (or (not x_7) (not x_56)))
(assume @p176 (or (not x_14) (not x_21)))
(assume @p177 (or (not x_14) (not x_28)))
(assume @p178 (or (not x_14) (not x_35)))
(assume @p179 (or (not x_14) (not x_42)))
(assume @p180 (or (not x_14) (not x_49)))
(assume @p181 (or (not x_14) (not x_56)))
(assume @p182 (or (not x_21) (not x_28)))
(assume @p183 (or (not x_21) (not x_35)))
(assume @p184 (or (not x_21) (not x_42)))
(assume @p185 (or (not x_21) (not x_49)))
(assume @p186 (or (not x_21) (not x_56)))
(assume @p187 (or (not x_28) (not x_35)))
(assume @p188 (or (not x_28) (not x_42)))
(assume @p189 (or (not x_28) (not x_49)))
(assume @p190 (or (not x_28) (not x_56)))
(assume @p191 (or (not x_35) (not x_42)))
(assume @p192 (or (not x_35) (not x_49)))
(assume @p193 (or (not x_35) (not x_56)))
(assume @p194 (or (not x_42) (not x_49)))
(assume @p195 (or (not x_42) (not x_56)))
(assume @p196 (or (not x_49) (not x_56)))
(assume @p197 (or (or (or (or (or (or x_7 x_6) x_5) x_4) x_3) x_2) x_1))
(assume @p198 (or (or (or (or (or (or x_14 x_13) x_12) x_11) x_10) x_9) x_8))
(assume @p199 (or (or (or (or (or (or x_21 x_20) x_19) x_18) x_17) x_16) x_15))
(assume @p200 (or (or (or (or (or (or x_28 x_27) x_26) x_25) x_24) x_23) x_22))
(assume @p201 (or (or (or (or (or (or x_35 x_34) x_33) x_32) x_31) x_30) x_29))
(assume @p202 (or (or (or (or (or (or x_42 x_41) x_40) x_39) x_38) x_37) x_36))
(assume @p203 (or (or (or (or (or (or x_49 x_48) x_47) x_46) x_45) x_44) x_43))
(assume @p204 (or (or (or (or (or (or x_56 x_55) x_54) x_53) x_52) x_51) x_50))
(step @p205 :rule and_intro :premises (@p170 @p169))
; trust THEORY_REWRITE
(step @p206 :rule trust :args ((= (or (or (or (or (or (or x_14 x_13) x_12) x_11) x_10) x_9) x_8) (or x_8 x_9 x_10 x_11 x_12 x_14 x_13))))
(step @p207 :rule eq_resolve :premises (@p198 @p206))
(step @p208 :rule reordering :premises (@p207) :args ((or x_8 x_9 x_10 x_11 x_12 x_13 x_14)))
(step @p209 :rule and_intro_nary :premises (@p208 @p205))
; trust THEORY_REWRITE
(step @p210 :rule trust :args ((= (or (or (or (or (or (or x_21 x_20) x_19) x_18) x_17) x_16) x_15) (or x_15 x_16 x_17 x_18 x_19 x_21 x_20))))
(step @p211 :rule eq_resolve :premises (@p199 @p210))
(step @p212 :rule reordering :premises (@p211) :args ((or x_15 x_16 x_17 x_18 x_19 x_20 x_21)))
(step @p213 :rule and_intro_nary :premises (@p212 @p209))
(step @p214 :rule and_intro_nary :premises (@p148 @p213))
(step @p215 :rule chain_resolution :premises (@p214) :args ((and false x_20 false x_13 true x_21 true x_14)))
(step @p216 :rule factoring :premises (@p215))

